data;


param d:= 100;
param r:=5;
param p:=0.820000;
param M:=1000;
param U:=
         1         1       -2.572818e+00
         2         1        1.884219e+00
         3         1       -1.917515e+00
         4         1       -1.145619e+00
         5         1        3.652515e-01
         6         1       -3.503763e-01
         7         1        6.266066e-01
         8         1        3.323283e-01
         9         1       -6.855338e-01
        10         1        2.737546e-03
        11         1       -1.049332e+00
        12         1        9.663765e-01
        13         1        1.175582e+00
        14         1        1.161837e+00
        15         1       -6.121719e-01
        16         1       -3.909664e-01
        17         1       -2.111032e-01
        18         1        1.944594e+00
        19         1        1.451900e+00
        20         1       -8.471988e-01
        21         1       -1.401075e+00
        22         1       -4.223313e-02
        23         1        2.021496e+00
        24         1       -1.838665e+00
        25         1        3.125920e-01
        26         1       -6.188871e-01
        27         1       -1.618593e+00
        28         1       -2.789245e-01
        29         1        2.064769e+00
        30         1       -1.574280e+00
        31         1       -3.389794e-01
        32         1        4.838714e-02
        33         1        1.058137e+00
        34         1       -1.309144e+00
        35         1        9.898331e-01
        36         1        5.168851e-01
        37         1        1.694740e+00
        38         1       -1.244947e+00
        39         1        6.921274e-02
        40         1        8.327791e-01
        41         1       -5.565633e-01
        42         1        9.121417e-01
        43         1        6.182029e-01
        44         1       -1.058930e+00
        45         1        5.022133e-01
        46         1        3.113503e-01
        47         1        2.205578e-01
        48         1        2.726437e-02
        49         1       -3.295061e-01
        50         1       -3.398847e-02
        51         1        2.501138e-01
        52         1       -3.101035e-01
        53         1        7.022739e-01
        54         1        5.632909e-01
        55         1       -1.337290e+00
        56         1       -1.244430e-01
        57         1        7.358340e-01
        58         1       -2.204306e-01
        59         1       -1.150633e-01
        60         1        1.591610e-01
        61         1       -1.502059e+00
        62         1       -8.099141e-01
        63         1        1.459829e+00
        64         1       -2.911874e-01
        65         1        6.272552e-01
        66         1        1.030454e+00
        67         1        9.786892e-02
        68         1       -5.029759e-01
        69         1       -2.846182e-01
        70         1        2.139187e-01
        71         1       -6.794923e-01
        72         1       -3.756942e-01
        73         1        3.373442e-01
        74         1        3.205427e-01
        75         1       -6.475074e-01
        76         1        2.067852e+00
        77         1       -8.387649e-01
        78         1        4.844467e-01
        79         1       -1.128775e+00
        80         1        7.696678e-01
        81         1       -8.960487e-01
        82         1        2.954535e-01
        83         1       -4.580142e-01
        84         1       -4.075540e-01
        85         1        1.226992e+00
        86         1       -4.884812e-01
        87         1        7.225878e-01
        88         1        1.055563e-01
        89         1        5.019980e-01
        90         1        8.321400e-01
        91         1       -3.654383e-01
        92         1        4.439720e-01
        93         1       -1.601584e+00
        94         1        2.994029e-01
        95         1        3.823687e-01
        96         1       -7.497234e-01
        97         1       -1.964106e+00
        98         1       -8.348796e-01
        99         1       -6.588445e-01
       100         1        1.844738e-01
         1         2        3.255303e-01
         2         2        3.597049e-02
         3         2        2.098895e+00
         4         2       -1.513869e+00
         5         2        6.400784e-03
         6         2       -1.964081e-01
         7         2        9.328476e-01
         8         2        8.418117e-01
         9         2        4.252747e-01
        10         2       -1.428681e+00
        11         2       -1.653142e+00
        12         2        1.669970e-01
        13         2        8.701602e-01
        14         2        1.534783e+00
        15         2       -2.396940e-02
        16         2        1.574006e+00
        17         2        1.546684e+00
        18         2       -8.887222e-01
        19         2       -8.834829e-01
        20         2       -1.431239e-01
        21         2       -1.951097e-01
        22         2       -7.040422e-01
        23         2        1.193275e-01
        24         2       -4.254539e-01
        25         2        1.233410e+00
        26         2       -3.176772e-01
        27         2       -1.053108e+00
        28         2        1.566917e+00
        29         2       -1.509357e+00
        30         2       -9.714323e-01
        31         2       -7.806108e-01
        32         2        2.061565e+00
        33         2        9.041182e-01
        34         2        7.212186e-01
        35         2        1.285721e+00
        36         2       -7.334899e-01
        37         2        6.283024e-01
        38         2       -1.045214e+00
        39         2        9.198517e-01
        40         2        1.400594e+00
        41         2       -4.879261e-01
        42         2       -1.166330e+00
        43         2       -1.372985e+00
        44         2       -1.738012e+00
        45         2       -1.010769e+00
        46         2        1.422245e+00
        47         2        2.917252e+00
        48         2        5.817300e-01
        49         2        6.203443e-01
        50         2       -1.575839e-02
        51         2       -1.545873e+00
        52         2        1.298242e+00
        53         2        8.993913e-02
        54         2       -3.321751e-01
        55         2        2.323596e-01
        56         2       -3.923480e-01
        57         2       -6.800603e-01
        58         2       -1.312128e+00
        59         2        7.412094e-01
        60         2        8.112038e-01
        61         2       -8.821537e-02
        62         2        8.710628e-02
        63         2        2.736722e-01
        64         2       -1.424909e-01
        65         2       -2.933815e+00
        66         2       -1.492078e-01
        67         2       -1.094349e+00
        68         2        3.999186e-01
        69         2       -5.223583e-02
        70         2        8.717484e-01
        71         2       -1.762987e+00
        72         2        3.370669e-01
        73         2        7.935702e-01
        74         2       -1.052603e+00
        75         2       -1.553385e+00
        76         2       -1.859682e+00
        77         2        9.104179e-01
        78         2       -1.394732e+00
        79         2       -5.085595e-01
        80         2        2.552867e-01
        81         2        1.315718e+00
        82         2        2.177758e-01
        83         2       -5.387825e-01
        84         2       -1.191038e+00
        85         2       -1.332818e+00
        86         2        1.437622e+00
        87         2        4.393689e-01
        88         2       -1.229971e+00
        89         2       -8.620464e-01
        90         2        2.042773e-01
        91         2       -1.973326e+00
        92         2        1.858690e-01
        93         2        1.365148e+00
        94         2       -4.840441e-02
        95         2        1.188257e+00
        96         2        7.742735e-01
        97         2       -1.994437e-01
        98         2       -6.877961e-03
        99         2        4.530662e-02
       100         2       -1.316241e+00
         1         3       -1.345418e+00
         2         3        8.682361e-01
         3         3       -2.287829e-01
         4         3        3.855679e-01
         5         3        5.392007e-01
         6         3       -3.850817e-01
         7         3        1.036993e-01
         8         3       -3.903200e-01
         9         3        9.091350e-01
        10         3       -8.807128e-01
        11         3       -1.000435e+00
        12         3       -8.174851e-01
        13         3        8.421443e-01
        14         3        6.986810e-01
        15         3       -9.238497e-01
        16         3        9.081081e-01
        17         3       -1.737292e-01
        18         3       -6.494858e-01
        19         3       -6.513469e-01
        20         3        1.921556e+00
        21         3       -2.438690e-01
        22         3        4.251252e-01
        23         3        2.197368e-01
        24         3       -1.356458e+00
        25         3        7.455142e-01
        26         3        4.846301e-01
        27         3        1.093307e+00
        28         3        1.686274e+00
        29         3       -3.066654e+00
        30         3        3.916000e-01
        31         3        6.969926e-01
        32         3        1.087635e-01
        33         3        8.663678e-01
        34         3       -1.905617e+00
        35         3        1.047951e+00
        36         3        3.645252e-01
        37         3       -3.847105e-01
        38         3        1.101353e+00
        39         3       -1.469545e+00
        40         3        1.364275e-01
        41         3       -1.953112e-02
        42         3        6.195864e-01
        43         3        3.513887e-01
        44         3        6.463307e-01
        45         3        1.893063e+00
        46         3       -9.476879e-01
        47         3       -8.778489e-01
        48         3        9.464190e-01
        49         3        8.117656e-01
        50         3        1.239659e+00
        51         3       -1.210369e+00
        52         3        1.063549e+00
        53         3       -3.875700e-02
        54         3       -4.516213e-01
        55         3        1.354453e+00
        56         3        4.098782e-01
        57         3       -1.173637e-01
        58         3        1.904656e+00
        59         3       -7.657829e-01
        60         3       -3.884987e-01
        61         3        4.058225e-01
        62         3       -2.450394e-01
        63         3       -1.866098e-01
        64         3        1.211896e+00
        65         3        7.226439e-01
        66         3        1.727672e+00
        67         3        1.323590e+00
        68         3       -9.123921e-02
        69         3       -4.121728e-01
        70         3        2.293084e-01
        71         3       -1.015711e+00
        72         3        3.663047e+00
        73         3        5.583696e-01
        74         3       -1.897516e-01
        75         3        1.023479e+00
        76         3       -8.979845e-02
        77         3       -9.024119e-01
        78         3        2.823109e-01
        79         3        8.966014e-01
        80         3       -2.190640e+00
        81         3        1.340612e-01
        82         3        8.237298e-01
        83         3       -5.707764e-01
        84         3       -3.189689e-01
        85         3        1.003469e+00
        86         3       -5.900358e-01
        87         3        5.033329e-01
        88         3       -8.711586e-01
        89         3        5.064136e-01
        90         3       -4.441369e-01
        91         3        6.906375e-01
        92         3       -5.375771e-01
        93         3        1.031708e+00
        94         3       -3.992308e-01
        95         3        1.705914e-01
        96         3        5.424902e-01
        97         3        2.534027e-01
        98         3        9.004356e-01
        99         3        1.081433e+00
       100         3        4.102471e-01
         1         4        4.758916e-01
         2         4        3.347965e-01
         3         4       -1.146312e-01
         4         4       -1.766479e-01
         5         4       -1.097230e+00
         6         4       -4.533046e-01
         7         4       -1.151584e+00
         8         4       -1.072043e+00
         9         4        1.679520e-02
        10         4        9.848433e-01
        11         4       -2.466663e-01
        12         4        8.862979e-01
        13         4        6.848773e-01
        14         4        2.283449e-02
        15         4       -2.124229e-01
        16         4       -8.870914e-01
        17         4       -1.443817e-01
        18         4       -1.104398e+00
        19         4        1.734182e-01
        20         4       -8.627238e-01
        21         4        9.718774e-01
        22         4       -1.029530e+00
        23         4       -2.904324e-02
        24         4       -2.416088e-01
        25         4       -1.560064e-02
        26         4        1.090102e+00
        27         4       -9.675511e-01
        28         4       -5.150843e-02
        29         4       -7.262644e-02
        30         4       -9.344469e-01
        31         4        1.567788e-01
        32         4        4.381252e-01
        33         4        3.768064e-01
        34         4       -1.061420e+00
        35         4       -1.996230e+00
        36         4       -1.606044e+00
        37         4       -7.735817e-01
        38         4       -6.410131e-01
        39         4       -1.041726e+00
        40         4        1.016143e+00
        41         4        1.265579e+00
        42         4       -2.781930e+00
        43         4       -3.693000e-01
        44         4       -1.452129e-01
        45         4       -1.671129e-01
        46         4       -1.019237e+00
        47         4        1.395238e+00
        48         4       -1.219223e+00
        49         4        1.087887e+00
        50         4        5.491790e-01
        51         4       -4.548771e-01
        52         4        1.579136e+00
        53         4        1.256371e-01
        54         4        6.033698e-02
        55         4       -5.371923e-01
        56         4       -6.274037e-02
        57         4        7.490624e-01
        58         4       -1.673748e-01
        59         4       -1.111933e+00
        60         4       -2.627724e-01
        61         4        4.971895e-01
        62         4        3.171431e-01
        63         4       -4.952330e-01
        64         4       -2.176017e+00
        65         4       -6.758967e-01
        66         4        3.649560e-01
        67         4        1.121043e+00
        68         4       -1.178066e+00
        69         4        4.799888e-01
        70         4        3.177367e-01
        71         4        8.869386e-01
        72         4        1.302821e+00
        73         4       -8.573109e-01
        74         4        1.728492e+00
        75         4        9.151269e-01
        76         4       -4.815278e-01
        77         4       -7.412030e-01
        78         4       -8.123350e-01
        79         4        1.316090e+00
        80         4        6.388332e-02
        81         4        2.495553e-01
        82         4       -1.003258e+00
        83         4        8.627019e-01
        84         4       -1.066012e+00
        85         4       -4.036987e-01
        86         4        1.132594e+00
        87         4       -3.557107e-01
        88         4        1.788390e+00
        89         4       -9.662425e-01
        90         4       -1.536285e-01
        91         4       -7.314280e-01
        92         4       -1.636206e+00
        93         4       -1.174332e-01
        94         4        4.043452e-01
        95         4       -6.298232e-01
        96         4        1.623622e+00
        97         4        6.916985e-01
        98         4       -5.731961e-01
        99         4       -1.330807e+00
       100         4       -4.034077e-01
         1         5        8.246529e-01
         2         5        8.940473e-01
         3         5       -7.735403e-01
         4         5        2.385139e-01
         5         5        1.659524e+00
         6         5       -6.436523e-01
         7         5       -3.435726e-01
         8         5        3.368856e-01
         9         5        1.015512e-01
        10         5        2.271991e+00
        11         5       -1.023859e+00
        12         5        7.100823e-01
        13         5       -4.060736e-01
        14         5       -1.726542e+00
        15         5        1.408168e+00
        16         5       -1.067150e+00
        17         5        1.556915e+00
        18         5        5.345750e-01
        19         5        5.695492e-01
        20         5        6.295322e-01
        21         5        5.011464e-01
        22         5        1.279468e+00
        23         5        5.797893e-01
        24         5       -3.142941e+00
        25         5       -9.983306e-01
        26         5        1.547496e-01
        27         5       -7.923802e-01
        28         5       -1.836350e-01
        29         5        1.971759e-02
        30         5       -5.972297e-02
        31         5        2.429161e+00
        32         5       -1.807308e+00
        33         5       -6.421400e-02
        34         5       -1.159657e+00
        35         5       -9.215460e-01
        36         5        2.038392e-01
        37         5        1.125905e+00
        38         5        1.418016e+00
        39         5        2.497946e+00
        40         5       -3.753885e-01
        41         5        8.034693e-01
        42         5        1.183941e+00
        43         5        4.418858e-02
        44         5        1.017629e+00
        45         5        1.124488e+00
        46         5       -1.574146e-01
        47         5       -1.412192e+00
        48         5        1.165043e+00
        49         5        2.740859e-01
        50         5        3.789421e-01
        51         5       -2.650331e-01
        52         5       -1.197396e+00
        53         5        3.338981e-01
        54         5       -8.871870e-01
        55         5        1.869331e-01
        56         5        7.369268e-01
        57         5       -4.031179e-01
        58         5        6.775241e-01
        59         5        7.897897e-01
        60         5        4.183702e-01
        61         5        1.709904e-01
        62         5        1.481032e+00
        63         5       -1.059629e+00
        64         5       -1.540969e+00
        65         5       -1.521914e+00
        66         5       -4.874347e-01
        67         5        1.491742e+00
        68         5        7.516423e-01
        69         5       -6.987682e-01
        70         5        8.782100e-01
        71         5       -1.040205e+00
        72         5       -5.410554e-01
        73         5       -7.099264e-01
        74         5       -7.607955e-01
        75         5        1.332835e-02
        76         5        7.958321e-01
        77         5        1.645554e+00
        78         5       -3.089639e+00
        79         5       -4.409948e-01
        80         5       -8.671976e-01
        81         5       -3.831665e-01
        82         5       -7.286704e-01
        83         5        2.941130e-01
        84         5        9.602128e-01
        85         5       -3.378659e-01
        86         5       -9.236481e-01
        87         5       -8.630815e-01
        88         5       -7.405473e-01
        89         5        4.618870e-01
        90         5        6.044810e-01
        91         5       -3.873751e-01
        92         5       -9.379091e-02
        93         5       -2.345551e-01
        94         5       -1.321729e+00
        95         5        6.559828e-01
        96         5        1.250399e+00
        97         5       -3.269054e-02
        98         5       -4.289281e-01
        99         5        1.551649e+00
       100         5       -1.764344e+00
;

param theta:=
    1       -1.029020e+00
    2        5.608748e-01
    3       -3.422724e-01
    4        2.333850e-01
    5        2.262887e-01
;
param X_true:=
    1        3.586796e+00
    2       -1.935082e+00
    3        3.027218e+00
    4        2.117438e-01
    5       -4.368626e-01
    6        1.319950e-01
    7       -5.022194e-01
    8        9.045899e-02
    9        6.580025e-01
   10        2.430426e-01
   11        2.058970e-01
   12       -2.531599e-01
   13       -9.422562e-01
   14       -9.598655e-01
   15        1.201699e+00
   16        5.258689e-01
   17        1.461852e+00
   18       -2.415272e+00
   19       -1.596708e+00
   20        7.432560e-02
   21        1.755741e+00
   22       -4.481337e-01
   23       -1.963174e+00
   24        1.349689e+00
   25       -1.147254e-01
   26        5.835143e-01
   27        2.957757e-01
   28        5.340336e-01
   29       -1.933462e+00
   30        7.102317e-01
   31        2.594341e-01
   32        7.649579e-01
   33       -8.039841e-01
   34        1.893917e+00
   35       -1.331157e+00
   36       -1.397054e+00
   37       -1.184772e+00
   38        4.912087e-01
   39        1.269931e+00
   40        3.440323e-02
   41        7.826607e-01
   42       -2.184930e+00
   43       -1.602264e+00
   44        9.215830e-02
   45       -1.517028e+00
   46        5.275640e-01
   47        1.715648e+00
   48       -4.632637e-02
   49        7.253600e-01
   50       -1.841807e-01
   51       -8.757060e-01
   52        7.810482e-01
   53       -5.534563e-01
   54       -7.953200e-01
   55        9.598271e-01
   56       -7.947790e-02
   57       -1.014510e+00
   58       -1.046884e+00
   59        7.164814e-01
   60        4.568062e-01
   61        1.513151e+00
   62        1.375997e+00
   63       -1.640294e+00
   64       -1.051074e+00
   65       -3.040127e+00
   66       -1.760299e+00
   67       -5.690277e-01
   68        6.670695e-01
   69        3.579558e-01
   70        4.649658e-01
   71        2.889668e-02
   72       -4.961669e-01
   73       -4.551433e-01
   74       -6.229877e-01
   75       -3.376661e-01
   76       -3.073810e+00
   77        1.881249e+00
   78       -2.265897e+00
   79        7.765873e-01
   80       -7.947116e-02
   81        1.584718e+00
   82       -8.628368e-01
   83        6.321325e-01
   84       -1.712458e-01
   85       -2.523484e+00
   86        1.565725e+00
   87       -9.485068e-01
   88       -2.513797e-01
   89       -1.293590e+00
   90       -4.873397e-01
   91       -1.224218e+00
   92       -5.728691e-01
   93        1.981965e+00
   94       -4.017947e-01
   95        2.152891e-01
   96        1.682903e+00
   97        1.975861e+00
   98        3.165600e-01
   99        3.727876e-01
  100       -1.561417e+00
;
param X:=
    1        6.588876e-02
    2       -2.362090e+00
    3       -5.588741e-01
    4       -1.127587e+00
    5       -9.401449e-01
    6       -1.034941e+00
    7       -7.369723e-01
    8        9.045899e-02
    9       -4.643297e-01
   10        2.430426e-01
   11       -1.314345e+00
   12       -2.531599e-01
   13        1.551695e+00
   14       -4.086900e-01
   15        1.740477e+00
   16        1.473783e-01
   17       -3.750890e-01
   18       -2.415272e+00
   19        6.781937e-01
   20        1.964473e+00
   21        4.323521e-01
   22        3.147237e-01
   23       -1.963174e+00
   24       -3.802517e-02
   25        2.460015e+00
   26        2.767103e-01
   27        1.034329e+00
   28        4.494181e-02
   29       -1.933462e+00
   30        4.799831e-01
   31        2.594341e-01
   32       -4.462867e-01
   33        1.413219e-01
   34       -2.143561e-01
   35        2.176858e+00
   36        5.283502e-01
   37        9.822825e-01
   38        4.912087e-01
   39        2.575136e-01
   40        1.336855e-01
   41       -1.751098e-02
   42       -2.184930e+00
   43       -1.698037e+00
   44        7.994470e-01
   45       -8.481440e-01
   46        4.180282e-01
   47        2.967294e-01
   48        4.258442e-01
   49        4.578487e-01
   50        9.097302e-01
   51        3.406901e-01
   52       -3.950164e-01
   53       -1.148354e+00
   54        1.028293e+00
   55        9.598271e-01
   56        7.679318e-01
   57       -9.916678e-01
   58       -1.229841e+00
   59       -4.970112e-02
   60        4.684160e-01
   61        1.513151e+00
   62        1.375997e+00
   63       -5.250798e-01
   64        7.040779e-01
   65       -1.375774e+00
   66       -3.393737e-01
   67        8.032370e-01
   68        6.670695e-01
   69        3.579558e-01
   70        3.062518e-01
   71        2.889668e-02
   72       -5.823665e-01
   73        2.689129e+00
   74       -1.778032e+00
   75       -2.757710e-01
   76       -3.278049e-01
   77       -8.509469e-01
   78       -1.008721e+00
   79       -1.325634e+00
   80       -7.947116e-02
   81       -5.003975e-02
   82       -9.615303e-01
   83       -2.085054e-01
   84       -2.826298e-01
   85       -2.255363e+00
   86        5.912271e-01
   87        5.883050e-01
   88       -1.448541e+00
   89        9.334601e-01
   90       -5.355435e-01
   91       -1.224218e+00
   92        1.692333e-01
   93        8.507634e-01
   94        8.615942e-02
   95        6.026080e-01
   96        9.434260e-01
   97        1.855998e+00
   98       -3.199838e-01
   99        3.727876e-01
  100        2.442176e-01
;
param outliervec:=
    1    1
    2    1
    3    1
    4    1
    5    1
    6    1
    7    1
    8    0
    9    1
   10    0
   11    1
   12    0
   13    1
   14    1
   15    1
   16    1
   17    1
   18    0
   19    1
   20    1
   21    1
   22    1
   23    0
   24    1
   25    1
   26    1
   27    1
   28    1
   29    0
   30    1
   31    0
   32    1
   33    1
   34    1
   35    1
   36    1
   37    1
   38    0
   39    1
   40    1
   41    1
   42    0
   43    1
   44    1
   45    1
   46    1
   47    1
   48    1
   49    1
   50    1
   51    1
   52    1
   53    1
   54    1
   55    0
   56    1
   57    1
   58    1
   59    1
   60    1
   61    0
   62    0
   63    1
   64    1
   65    1
   66    1
   67    1
   68    0
   69    0
   70    1
   71    0
   72    1
   73    1
   74    1
   75    1
   76    1
   77    1
   78    1
   79    1
   80    0
   81    1
   82    1
   83    1
   84    1
   85    1
   86    1
   87    1
   88    1
   89    1
   90    1
   91    0
   92    1
   93    1
   94    1
   95    1
   96    1
   97    1
   98    1
   99    0
  100    1
;